%mem=16gb 
%NProcShared=4  
%Subst L101 ../../bin  
%Subst L502 ../../bin  
#p lsda/gen pseudo=read pop=min Scf=(conver=5,maxcycle=1000,dsymm,nodamp) opt(z-matrix,maxcycle=100,loose) nosymm  

input_Electrodo_Au_3_benzene

0,1 
Au	2.45707	-0.66195	-8.73991
Au	0.14811	0.97608	-8.49918
Au	-0.09549	-1.85133	-8.36314
Au	-2.16077	2.61414	-8.25851
Au	-2.40445	-0.2133	-8.12241
Au	-2.64806	-3.04072	-7.98637
Au	1.13641	-0.42757	-6.23529
Au	-1.17255	1.21047	-5.99457
Au	-1.41615	-1.61695	-5.85853
Au	-0.18425	-0.19318	-3.73068
C	-1.13096	-0.67288	-2.38489
C	-1.10376	0.72582	-2.38489
H	-2.07866	-1.19578	-2.38489
H	-2.03046	1.28512	-2.38489
C	0.06674	-1.39588	-2.38489
C	0.12114	1.40172	-2.38489
H	0.04574	-2.47798	-2.38489
C	1.29174	-0.72008	-2.38489
C	1.31894	0.67872	-2.38489
H	0.14224	2.48382	-2.38489
H	2.21834	-1.27938	-2.38489
H	2.26664	1.20152	-2.38489
Au	-0.07144	-0.03503	-0.99164
Au	-1.49202	0.78514	1.32815
Au	1.34914	0.78514	1.32815
Au	-0.07144	-1.67537	1.32815
Au	-2.9126	1.60531	3.64795
Au	-0.07144	1.60531	3.64795
Au	-1.49202	-0.8552	3.64795
Au	2.76972	1.60531	3.64795
Au	1.34914	-0.8552	3.64795
Au	-0.07144	-3.31571	3.64795

1     2     3     4     5     6     7     8     9     10     23     24     25     26     27     28     29     30     31     32     
 S   4   1.00 
2.8090000              1.1608481
1.5950000             -1.8642846
0.5327000             -1.0356230
0.2826000              1.3064399
S   3   1.00
2.8090000             -1.2021556
1.5950000              1.6741578
0.5327000              0.3526593
S   1   1.00 
 0.0598000              1.0000000
P   3   1.00 
 3.6840000             -0.2802681
 1.6660000              0.7818398
 0.5989000              0.4804776
P   2   1.00
   0.6838000             -0.0952078
   0.0977000              1.0299147
P   1   1.00
   0.0279000              1.0000000
D   1   1.001.2870000              0.5844273
0.4335000              0.5298161
D   1   1.00
0.1396000              1.0000000
**** 
11     12     15     16     18     19     
 S   7   1.00 
4233.0000000              0.0012200 
 634.9000000              0.0093420 
 146.1000000              0.0454520 
  42.5000000              0.1546570 
  14.1900000              0.3588660 
   5.1480000              0.4386320 
   1.9670000              0.1459180 
S   2   1.00 
5.1480000             -0.1683670 
0.4962000              1.0600910 
S   1   1.00 
0.1533000              1.0000000 
P   4   1.00 
18.1600000              0.0185390 
 3.9860000              0.1154360 
 1.1430000              0.3861880 
 0.3594000              0.6401140 
P   1   1.00 
0.1146000              1.0000000 
**** 
13     14     17     20     21     22     
 S   3   1.00 
19.2384000              0.0328280 
 2.8987000              0.2312040 
 0.6535000              0.8172260 
S   1   1.00 
0.1776000              1.0000000 
**** 

AU     0
AU-ECP     4     60
g potential
 5
1    622.6287956            -60.0000000
2    136.2843607           -555.5292312
2     33.1549781           -168.0019785
2      9.9894895            -63.0399875
2      3.0481312             -4.2516681
s-g potential
  6
0    194.7374304              3.0000000
1    351.5327447             38.6020880
2    122.3270402            864.8370727
2     32.0914617            374.9935520
2      5.2451812            289.7910100
2      4.4916223           -152.4532773
p-g potential
 4
0    420.6158801              2.0000000
1    109.4417815             73.8885625
2     34.1714280            326.6729872
2      5.9879750            126.5814591
d-g potential
  5
0    219.2666158              3.0000000
1    122.7297786             55.6793149
2     63.1063369            449.1987335
2     18.3684520            215.0269091
2      4.4972844             64.0840995
f-g potential
  5
0    108.5506037              4.0000000
1     56.4795527             51.8065335
2     29.2069159            231.2183113
2      9.5440543            119.0047386
2      2.8965118             15.3424188
 
 
 
