%mem=1000mb
%nproc=4
%Subst L101 ../bin
%Subst L502 ../bin
#p LSDA/gen pseudo=read scf=(maxcycle=300,conver=5,nodamp) nosymm

Ni9-Ni4-Ni-Ni-Ni4-Ni9.AF

0,31
Ni      0.00000    -3.50000    -4.75000
Ni     -3.50000     0.00000    -4.75000
Ni      3.50000     0.00000    -4.75000
Ni      0.00000     3.50000    -4.75000
Ni     -1.75000    -1.75000    -4.75000
Ni      1.75000    -1.75000    -4.75000
Ni      0.00000     0.00000    -4.75000
Ni     -1.75000     1.75000    -4.75000
Ni      1.75000     1.75000    -4.75000
Ni      0.00000    -1.75000    -3.00000
Ni     -1.75000     0.00000    -3.00000
Ni      1.75000     0.00000    -3.00000
Ni      0.00000     1.75000    -3.00000
Ni      0.00000     0.00000    -1.25000
Ni      0.00000     0.00000     1.25000
Ni      0.00000    -1.75000     3.00000
Ni     -1.75000     0.00000     3.00000
Ni      1.75000     0.00000     3.00000
Ni      0.00000     1.75000     3.00000
Ni     -1.75000    -1.75000     4.75000
Ni      1.75000    -1.75000     4.75000
Ni      0.00000     0.00000     4.75000
Ni     -1.75000     1.75000     4.75000
Ni      1.75000     1.75000     4.75000
Ni      0.00000    -3.50000     4.75000
Ni     -3.50000     0.00000     4.75000
Ni      3.50000     0.00000     4.75000
Ni      0.00000     3.50000     4.75000

Ni 0
S   4   1.0
     2.362       0.010376
     0.8079     -0.238384
     0.1275      0.665229
     0.04398     0.477461
P  3  1.00
      0.630932838         -0.121546860
      0.232853898          0.571522760
      0.102830736          0.549894947
D   5   1.0
    28.73        0.065209
     7.726       0.280565
     2.496       0.443502
     0.9166      0.359627
     0.3105      0.205313
****

Ni  0
Ni10-ECP 2 18
L=2 COMPONENT
  5
    2        .604700        -.398208
    2       1.937000       -3.115495
    2       5.494600      -11.885995
    2      18.089500      -32.509995
    1      53.189400      -11.935028
L=0 COMPONENT
  6
    2        .937900       43.799377
    2       1.066500     -122.488278
    2       1.320100      170.382907
    2       1.604500      -88.123616
    1       2.269800        8.001575
    0       1.709400        3.674683
L=1 COMPONENT
  6
    2        .265300         .027447
    2       1.509200       94.021553
    2       1.812800     -187.115489
    2       2.212000      122.751965
    1       5.485600       12.053374
    0       7.518900        5.363713


