%mem=250MB
%Subst L101 ../bin
%Subst L502 ../bin
%NProcShared=4
#p lsda/gen pseudo=read Scf=(conver=5,maxcycle=200,dsymm,nodamp) 

Pd9-Pd4-Pd-Pd-Pd4-Pd9

0,1
Pd   -3.900000    0.000000   -5.250000
Pd    0.000000    0.000000   -5.250000
Pd    0.000000    3.900000   -5.250000
Pd   -1.950000    1.950000   -5.250000
Pd   -1.950000   -1.950000   -5.250000
Pd    1.950000    1.950000   -5.250000
Pd    0.000000   -3.900000   -5.250000
Pd    1.950000   -1.950000   -5.250000
Pd    3.900000    0.000000   -5.250000
Pd   -1.950000    0.000000   -3.300000
Pd    0.000000    1.950000   -3.300000
Pd    0.000000   -1.950000   -3.300000
Pd    1.950000    0.000000   -3.300000
Pd    0.000000    0.000000   -1.350000
Pd    0.000000    0.000000    1.350000
Pd   -1.950000    0.000000    3.300000
Pd    0.000000    1.950000    3.300000
Pd    0.000000   -1.950000    3.300000
Pd    1.950000    0.000000    3.300000
Pd   -3.900000    0.000000    5.250000
Pd   -1.950000    1.950000    5.250000
Pd    0.000000    3.900000    5.250000
Pd   -1.950000   -1.950000    5.250000
Pd    1.950000    1.950000    5.250000
Pd    1.950000   -1.950000    5.250000
Pd    0.000000    0.000000    5.250000
Pd    0.000000   -3.900000    5.250000
Pd    3.900000    0.000000    5.250000

Pd     0 
S   3   1.00
      0.4542000             -0.3704980        
      0.1720000              0.4372990        
      0.0484000              0.8238030        
P   3   1.00
      0.7368000             -0.0299640        
      0.0899000              0.3514930        
      0.0262000              0.7428430        
D   4   1.00
      2.3252000              0.2781320        
      1.0020000              0.4375760        
      0.4032000              0.3656230        
      0.1452000              0.1500720        
****

PD     0
PD-ECP     3     36
F POTENTIAL
  4
2      0.98809999            -1.46114802       
2      2.62940001            -9.50723076       
2     10.25819969           -41.77036667       
1     29.55920029           -21.68132210       
S-F POTENTIAL
  6
2      1.56780005           170.32637024       
2      1.89289999          -308.21520996       
2      2.56369996           278.71969604       
2      3.51640010          -136.46862793       
1      4.76160002            32.85005951       
0     18.32069969             3.32001805       
P-F POTENTIAL
  6
2      1.10739994           104.99304199       
2      1.34440005          -201.67398071       
2      1.82319999           191.11369324       
2      2.47819996           -89.62584686       
1      3.49810004            28.29756546       
0     12.45730019             5.31397009       
D-F POTENTIAL
  6
2      0.25200000            -0.06195100       
2      0.69040000            -1.10503602       
2      1.75610006           -16.16929626       
2      2.83060002            17.75333786       
1      1.04600000             6.82440615       
0     10.49960041             7.95571184       


