%mem=250mb
%Subst L502 ../../bin
%Subst L101 ../../bin
%NProcShared=1
#p lsda/gen pseudo=read gfinput Scf=(dsymm,conver=6,nodamp)

Au-Au-Au-Au

0,1
Au     0.000000     0.000000    0.0       
Au     0.000000     0.000000    3.0       
Au     0.000000     0.000000    6.0       
Au     0.000000     0.000000    9.0       

Au 0
S      3        1.00
       0.4409                   -0.7478
       0.2626                    0.8176
       0.0617                    0.8113
****

Au 0
shf
                               
