%mem=900MB
%Subst L502 ../bin
%Subst L101 ../bin
%NProcShared=4
#p UBPBE/gen pseudo=read guess=mix Scf=(maxcycle=100,conver=5,dsymm,nodamp) opt(z-matrix) nosymm

Mn9-Mn4-Mn

0 71 
25           0        1.600008    4.800025   -0.940005
25           0       -1.600008    4.800025   -0.940005
25           0       -1.600008    1.600008   -0.940005
25           0        1.600008    1.600008   -0.940005
25           0        4.800025    4.800025   -0.940005
25           0        4.800025    1.600008   -0.940005
25           0       -4.800025    1.600008   -0.940005
25           0       -4.800025   -1.600008   -0.940005
25           0       -1.600008   -1.600008   -0.940005
25           0        1.600008   -1.600008   -0.940005
25           0        4.800025   -1.600008   -0.940005
25           0       -4.800025   -4.800025   -0.940005
25           0       -1.600008   -4.800025   -0.940005
25           0        1.600008   -4.800025   -0.940005
25           0        4.800025   -4.800025   -0.940005
25           0       -4.800025    4.800025   -0.940005
25           0        0.000000    3.200017    0.460002
25           0        3.200017    3.200017    0.460002
25           0       -3.200017    0.000000    0.460002
25           0        3.200017    0.000000    0.460002
25           0       -3.200017   -3.200017    0.460002
25           0        3.200017   -3.200017    0.460002
25           0        0.000000    0.000000    0.460002
25           0       -3.200017    3.200017    0.460002
25           0        0.000000   -3.200017    0.460002
Mn  0    x1 y1 z1            
Mn  0    x2 y2 z2            
Mn  0    x3 y3 z3            
Mn  0    x4 y4 z4            
Mn  0    x5 y5 z5            
Variables:
x1 = -1.6000
y1 = -1.6000
z1 = 1.860009
x2 = 1.6000
y2 = -1.6000
z2 = 1.860009
x3 = -1.6000
y3 = 1.6000
z3 = 1.860009
x4 = 1.6000 
y4 = 1.6000
z4 =  1.860009
x5 = 0.0
y5 = 0.0
z5 = 3.460018

1-16
S   4   1.00
      1.8050000              0.0279520
      0.7001000             -0.2659690
      0.1120000              0.5651140
      0.0411700              0.5751150
P    4  1.0
     3.906    -0.008570
     1.576    -0.015353
     0.1977    0.485440
     0.05730   0.622006
D   5   1.00
     21.5400000              0.0605270
      5.6700000              0.2677310
      1.8300000              0.4413160
      0.6874000              0.3672010
      0.2414000              0.2049740
****
17-30
lanl2dz
****

1-16 
MN-ECP     2     18
D POTENTIAL
  5
2      0.45190001            -0.32237199
2      1.38629997            -2.42131090
2      3.74930000            -9.07335377
2     11.57509995           -23.51095963
1     33.64369965           -11.55800056
S-D POTENTIAL
  6
2      0.74610001            50.56281281
2      0.83649999          -139.92572021
2      1.00870001           187.17520142
2      1.19529998           -96.70987701
1      1.95889997            18.29615593
0      8.92039967             3.13673401
P-D POTENTIAL
  6
2      1.09370005            35.46660995
2      1.48570001          -103.00804138
2      1.97080004           106.40811157
2      2.59910011           -43.28920364
1      1.04449999            10.65728283
0      3.00909996             5.33598995
17-30
lanl2dz








